25 
300 
-0.5 0 0 0
0.5 0 0 -26
-7 -7 -35 -123
-7 -5 -35 -84
-7 -3 -35 -128
-7 -1 35 -14
-7 1 35 -13
-7 3 35 -29
-7 5 35 -11
-7 7 35 -19
-5 -7 -35 -84
-5 -5 25 -25
-5 -3 25 -13
-5 -1 -25 -105
-5 1 25 -12
-5 3 -25 -138
-5 5 25 -20
-5 7 35 -18
-3 -7 35 -27
-3 -5 -25 -137
-3 -3 -15 -66
-3 -1 15 -16
-3 1 -15 -85
-3 3 15 -13
-3 5 -25 -63
-3 7 -35 -104
-1 -7 35 -22
-1 -5 -25 -113
-1 -3 15 -19
-1 -1 5 -19
-1 1 -5 -126
-1 3 15 -19
-1 5 25 -22
-1 7 -35 -84
1 -7 35 -20
1 -5 -25 -102
1 -3 -15 -86
1 -1 5 -27
1 1 -5 -96
1 3 15 -20
1 5 25 -12
1 7 -35 -61
3 -7 -35 -116
3 -5 -25 -68
3 -3 -15 -86
3 -1 15 -16
3 1 -15 -62
3 3 -15 -96
3 5 25 -18
3 7 35 -20
5 -7 -35 -63
5 -5 -25 -87
5 -3 25 -17
5 -1 25 -13
5 1 25 -16
5 3 25 -24
5 5 25 -20
5 7 35 -10
7 -7 -35 -119
7 -5 35 -27
7 -3 35 -10
7 -1 35 -22
7 1 35 -14
7 3 -35 -106
7 5 35 -27
7 7 -35 -64
